5154
500000
332804
332804
332804
332804
332804
332804
332804
332804
332706
332706
332706
332706
332706
332706
332616
332616
332616
332616
332616
332616
332616
332616
332616
332616
332616
332616
332616
332616
332616
332616
332401
332401
332401
332401
332401
332401
332401
332401
332401
332401
332401
332401
332401
332401
332397
332397
332397
332397
332397
332397
332397
332397
332397
332397
332397
332397
332397
332397
332090
332090
332090
332090
332090
332090
332090
332090
332090
332090
332090
332090
332090
332090
331726
331726
331726
331726
331726
331726
331726
331726
331726
331726
331726
331726
331529
331529
331529
331529
331529
331529
331529
331529
331529
331529
331529
331529
330744
330744
330744
330744
330744
330744
330744
330744
330744
330744
330138
330138
330138
330138
329858
329858
329858
329858
329837
329837
329706
329706
329706
329706
329706
329706
329706
329706
329706
329706
329706
329706
329706
329706
329706
329706
329706
329706
329706
329706
328813
328813
328813
328813
328813
328813
328813
328813
328813
328813
328813
328813
328813
328813
328813
328813
328813
328813
326889
326889
326889
326889
326889
326889
326889
326889
326889
326889
326889
326889
326889
326889
326887
326887
326887
326887
326887
326887
326887
326887
326887
326887
326887
326887
326887
326887
326887
326887
326887
326887
326887
326097
326097
326097
326097
326097
326097
326097
326097
326097
326097
326097
326097
326097
326097
326097
326097
326097
326097
326097
325195
325195
325195
325195
325195
325195
325195
325195
325195
325195
325195
325195
325195
325195
325195
325195
324791
324791
324791
324791
324791
324791
324791
324791
324791
324791
324791
324791
324791
324791
323551
323551
323551
323551
323551
323551
323551
323551
323551
323551
323551
323551
323551
322362
322362
322362
322362
322362
322362
322362
322362
322362
322362
322362
322362
322357
322357
322357
322357
322357
322357
322213
322213
321887
321887
321887
321887
321887
321887
321887
321887
321887
321887
321887
321887
321426
321426
321426
321426
321426
321426
321284
321284
321284
321284
321284
321284
321284
321284
321228
321228
321228
321228
321228
321228
321228
321228
321228
321228
321228
321228
321228
321228
321228
321173
321173
321173
320869
320869
320869
320625
320625
320625
320625
320625
320625
320625
320625
320625
320625
320625
320625
320625
320625
320625
320553
320553
320553
320553
320553
320553
320553
320553
320553
320553
319280
319280
319280
319280
319280
319280
319280
319138
319138
319138
319138
319138
319138
319138
319138
319138
319138
319138
319138
319107
319107
319107
318807
318807
318807
318807
318807
318807
318807
318052
318052
318052
318052
318052
318052
318052
318052
318052
318052
318052
316541
316541
316541
316541
316541
316541
316541
316541
316541
316397
316397
316397
316397
316397
316397
316397
316397
315592
315592
315592
315592
315592
315592
315592
315592
315592
315592
315592
315592
315592
315508
315508
315508
315508
315508
315508
315508
315508
315508
315508
315508
315508
315508
314745
314745
314745
314745
314745
314745
314745
314745
314745
314745
314745
314745
314745
314745
314745
314745
314745
314745
314745
314109
314109
314109
314109
314109
314109
314109
313658
313658
313658
313658
313658
313658
313658
313566
313566
313566
313566
313566
313566
313566
313566
313566
313566
313174
313174
313174
313174
313174
313174
313174
313174
313174
313174
313174
312331
312331
312331
312331
312331
312331
312331
312331
311593
311593
311409
311409
311409
311409
311409
311409
311409
311409
311409
311409
311409
310825
310825
310825
310825
310825
310825
310825
310825
310825
310806
310806
310112
310112
310112
310112
310112
310112
310112
310112
310112
310112
310112
310112
310112
310112
310112
310112
310112
310112
310112
310112
309853
309853
309853
309853
309853
309853
309314
309314
309314
309314
309314
308935
308935
308935
308935
308889
308889
308889
308889
308889
308889
308889
308889
308889
308889
308889
308889
308889
308889
308889
308889
308889
308889
308889
308889
308275
308275
308275
308275
308275
308275
308275
308275
308275
308275
308275
308275
308275
307964
307964
307964
307964
307964
307964
307964
307964
307964
307964
307964
307964
307964
307964
307964
307964
307964
307964
307964
307964
307727
307727
307727
307727
307727
307727
307727
307727
307727
307727
307727
307727
307727
307727
307727
307727
307727
307727
307727
307727
307104
306125
306125
306125
306125
306125
306125
306125
306125
306125
305766
305766
305766
305766
305766
305766
305766
305766
305766
305766
305766
305766
305766
305766
305766
305766
305603
305603
305603
305603
305603
305603
305603
305603
305603
305603
305106
305106
305106
305106
305106
305106
305106
304857
304857
304857
304857
304857
304857
304857
304857
304857
304857
304857
304857
304857
304857
304857
304857
304857
304634
304634
304634
304634
304634
304634
304634
304634
304634
304634
304634
304634
304634
304634
304634
304634
304634
304634
304634
304463
304463
304463
304463
304463
304463
304463
304463
304463
304463
304463
304463
304463
304463
304283
304283
304283
304283
304283
304283
304283
304283
304283
304283
304283
304283
304283
304283
304283
304283
304283
304283
304283
304283
303886
303886
303886
303886
303886
303886
303886
303886
303886
303886
303886
303886
303886
303886
303886
303886
303886
303886
303886
303886
303749
303749
303749
303749
303749
303749
303749
303749
303749
303749
303749
303749
303749
303749
303639
303639
303639
303639
303639
303639
303639
303639
303639
303639
303639
303639
303639
303639
303639
303639
303639
303353
303353
303353
303353
303353
303353
303353
303353
303353
303353
303353
303353
303353
303353
303353
303353
303353
301833
301833
301833
301833
301833
301833
301833
301508
301508
301478
301478
301478
301478
301478
301478
301478
301478
301478
301478
301478
301478
301478
301478
301478
301478
301478
301427
301427
301427
301427
301427
301427
301427
301427
301080
301080
301080
301080
301080
301080
301080
301080
301080
301080
301080
301080
301080
301080
301080
301080
301080
300183
300183
300183
300183
300183
300183
300183
300183
300183
300183
300183
300183
300183
300183
300183
300183
300183
300010
300010
300010
300010
300010
300010
300010
300010
300010
300010
300010
298997
298997
298997
298997
298997
298997
298997
298997
298997
298997
298997
298997
298997
298997
298997
297915
297915
297915
297915
297915
297915
297915
297915
297915
297915
297915
297915
297915
297915
297915
297915
297915
297915
297915
297915
297260
297260
297260
297260
297260
297260
297260
297260
297260
297260
297260
297260
297260
297260
297244
297244
297244
296357
296357
296357
296357
296357
296357
296357
296357
296357
296357
296357
296357
296357
296357
295918
295918
295918
295918
295918
295918
295918
295918
295918
295918
295918
295918
295918
295918
295918
295918
295918
295918
295918
295511
295511
294810
294810
294810
294810
294810
294810
294810
294810
294810
294810
294810
294810
294789
294789
294789
294789
294789
294789
294789
294789
294789
294789
294789
294789
294789
294789
294789
293429
293429
293429
293429
293429
292222
292222
292222
292222
292222
292222
292222
292222
292222
291510
291510
291510
291510
291510
291510
291510
291510
291510
291510
291510
288522
288522
287877
287877
287877
287877
287877
287877
287877
287877
287877
287877
287877
287877
287877
287877
287877
287877
287877
287877
287693
287693
287693
287693
287693
287693
287693
287693
287693
287693
287693
286055
286055
286055
286055
286055
285856
285856
285856
285856
285856
285856
285856
285856
285856
285856
285856
285856
285856
285856
285856
285856
285856
285806
285806
285806
285806
285806
285806
285806
285806
285806
285806
285806
285806
285806
285806
285806
285806
285806
285806
284387
284387
284387
284387
284387
284387
284387
284387
284387
284387
284387
284387
284387
284387
284387
284387
284387
284387
283883
283883
283883
283883
283363
283363
283363
283363
283363
283363
283363
283297
282929
282929
282929
282929
282374
282374
282374
282374
282374
282374
282374
282374
282374
282374
282374
282374
282374
281428
281428
281428
281428
281428
281428
281428
281428
281428
281428
281428
281428
281428
281428
281428
281428
281428
281428
281428
281376
281376
281376
281376
280991
280991
280991
280497
280497
280497
280497
280497
280497
280497
280497
280497
280497
280497
280497
280497
280497
280497
280497
280497
280497
278793
278793
278793
278793
278793
278793
278793
278793
278793
278793
278009
278009
278009
278009
278009
278009
278009
278009
278009
278009
278009
278009
278009
278009
278009
278009
278009
278009
277208
276600
276600
276600
276600
276600
276600
276600
276600
276600
276600
276600
276600
276600
276600
276600
276600
276600
276600
276507
276507
276507
276507
276507
276371
276371
276371
276371
276313
276313
274928
274928
274928
274928
274928
274928
274928
274928
274928
273227
273227
273227
271586
271586
271586
271586
271586
271586
271586
271586
271586
271586
271586
270873
270873
270873
270873
270873
270873
270873
270873
270873
270265
270265
270265
270265
270265
270265
270265
270265
270265
270265
270265
270063
270063
270063
270063
270063
270063
270063
270063
270063
270063
270063
270063
270063
270063
270063
270063
270063
270063
269988
269988
269988
269988
269988
269988
269988
269988
269988
269988
269988
269988
269988
268727
268727
265831
265831
265831
265831
265831
265831
265831
265831
265831
265831
265831
265831
265831
265831
265831
265831
265831
265831
265831
265680
265680
265680
265680
265680
265680
265680
265680
265680
265680
265680
265680
265680
265680
265680
265680
265680
265680
265680
264963
264963
264963
264963
264963
264963
264963
264963
264963
264441
264441
264441
264269
264269
264269
264269
264269
264269
264269
264269
264269
264269
264269
264269
264269
262797
262797
262797
262797
262797
262797
262797
262797
262797
262797
262797
262176
262176
262176
262176
261919
261919
261919
261919
261919
261123
261123
261123
261123
261123
261123
261123
261123
261123
261123
261123
261123
261123
261099
261099
261099
261099
261099
261099
261099
261099
261099
261099
261099
261099
261099
261099
261099
260726
260726
260726
260726
260726
260726
260726
260726
260726
260726
260726
260468
260468
260468
260468
260468
260468
260468
259146
259025
259025
259025
259025
258547
258547
258547
258547
258547
258547
258547
258547
258547
258547
258547
258547
258547
258547
258547
258547
258547
258547
258547
257769
257769
257769
257769
257769
257769
257769
257769
257769
257769
257769
257769
257769
256869
256869
256869
256869
256869
256869
256869
256869
256687
256687
256687
256687
256687
256687
256687
256687
256687
256687
256687
256687
256687
256687
256547
256547
256547
256547
256547
256211
256211
256211
256211
256211
256211
256211
256211
256211
256211
256211
256211
256211
256211
256211
256211
256211
256211
256211
255378
255378
255378
255378
255378
255378
255378
255378
254824
253918
253918
253918
253918
253918
253918
253918
253918
253918
253918
253918
253308
253308
253308
251855
251855
251155
251155
251155
251155
251155
251155
251155
251155
251155
251155
251056
251056
251056
251056
251056
251056
251056
251056
251056
251056
251056
251056
251056
251056
251056
251056
251056
251014
251014
251014
251014
250970
250271
250271
250132
250132
250132
250132
250132
250132
250132
250132
250132
249095
249095
249095
248761
248761
248761
248761
248761
248761
248761
248761
248761
248761
248761
248761
248761
248761
248658
248658
248658
248658
248658
248658
248658
248658
248658
248658
248658
248658
248658
248658
248658
248658
248658
248658
248658
247602
247602
247602
247602
247602
247602
247602
247602
247602
247602
247602
247602
247602
247602
247602
247602
247602
247012
247012
247012
247012
247012
247012
247012
247012
247012
247012
247012
247012
247012
247012
247012
246709
246709
246704
246704
246704
246704
246704
246704
246704
246704
246704
246704
246704
246704
246704
246704
246704
246704
246704
246292
246292
246292
246292
245367
245367
245367
245367
245367
245367
245051
245051
245051
245051
245051
245051
245051
245051
245051
245051
245051
245051
245051
245051
245051
245051
245051
245051
245051
244794
244794
244794
244794
244794
244794
244794
244794
244794
244794
244794
244794
244794
244794
244794
244794
244794
244794
244794
244794
244180
244180
244180
244180
244180
244180
244180
244180
244180
244180
244180
244180
244180
244180
244180
244180
244180
244180
244180
243363
243363
243363
242662
242662
242461
242461
242461
242461
242461
242461
242461
242461
242461
242333
242333
242333
242218
242218
242218
242218
242218
241265
241265
241265
240355
240355
240355
240355
240355
240355
240355
240355
240355
240355
240355
240355
240355
240355
240355
240355
240325
240325
240325
240325
240325
240325
240325
240325
240325
240325
240325
240325
240325
240325
240325
240325
240047
240047
240047
240047
240047
240047
240047
240047
240047
240047
240047
240047
238852
238852
238852
238852
238852
238852
238852
238852
238852
238852
238852
238852
238423
238423
238423
238423
238423
238423
238423
238423
238423
238423
237652
237652
237652
237652
237652
237652
237652
237652
236991
234890
234890
234890
234890
234890
234890
234890
234890
234890
234890
234890
234890
234890
234890
234890
234890
234864
234262
234239
233429
233429
233429
233429
233429
233429
233113
233113
233113
233113
233113
232369
232369
232369
232369
232369
232369
232369
232369
230319
230319
230319
230319
230319
230319
230319
230319
230319
230319
230319
229959
229959
229959
229959
229959
229959
229959
229959
229959
229959
229959
229959
229959
229959
229959
229959
229959
229959
229959
229642
229642
228876
228876
228876
228876
228876
228876
228876
228876
228876
228876
228876
228876
228876
228876
228876
228131
228131
228131
227970
227970
227970
227970
227970
227970
227970
227970
227970
227970
227970
227970
227970
227970
227805
227805
227805
227805
227805
227805
227805
227805
227805
227692
227692
227692
227692
227692
227692
227692
227692
227692
227537
227537
227537
227175
227175
227175
227175
227175
227175
226681
226048
224215
224215
224189
224189
224189
224189
224189
224189
224189
224189
224189
224189
224024
224024
224024
224024
224024
222206
222206
222206
222206
221891
221891
221891
221891
221891
221891
221891
221891
221008
219957
219957
219957
219957
219957
219957
219957
219957
219957
219957
219957
219957
219398
219398
219398
219398
219398
219398
219398
219398
219398
219398
219398
219398
219398
219398
219398
219007
219007
219007
219007
219007
219007
219007
219007
219007
219007
219007
219007
219007
219007
219007
219007
219007
219007
219007
219007
217632
217632
217632
217632
217632
217632
217632
217632
217632
217484
217484
217484
217484
217484
217484
217484
217484
217484
217374
217374
217374
217374
217374
217374
217374
217374
217374
217374
217374
217374
217374
217374
217374
217374
217374
215738
215738
215738
215738
215738
215738
215738
215738
215738
215697
215697
215697
215697
215697
215697
215697
215697
215697
215576
215576
215576
215576
215576
215576
215576
215576
215576
215576
215268
215268
215268
215268
215268
215268
215268
215268
215268
215268
215268
215268
215268
215268
214581
214581
214581
214581
214581
214581
212959
212959
212959
212959
212959
212959
212959
212959
212959
212959
212959
212959
212959
212959
212959
212959
212959
212959
212448
212448
212448
212448
212448
212448
212448
212448
212448
212448
212448
212448
212448
212335
212335
212335
212335
212335
212335
212335
212335
212335
212335
212335
212335
212335
212335
211871
211871
211871
211871
211871
211871
211871
211871
211871
211871
211871
211871
211871
211871
211871
211871
211871
211871
211871
211763
211763
211763
211763
211763
211763
211763
211763
211763
211763
211763
211763
211763
211763
211763
211763
211763
211763
211763
211268
211268
211268
211268
211268
211268
211268
211268
211268
211268
211268
211268
211268
211268
211268
210654
210654
210654
210654
210654
210654
210654
210654
210654
210654
210654
210654
209665
209665
209665
209665
209665
209665
209665
209665
209665
209665
209665
209665
209665
209665
209665
209389
209389
209389
207826
207826
207826
207826
207820
207820
207820
207820
207820
207820
207820
207820
207820
207820
207820
207820
207820
207820
207820
207820
207820
206556
206556
206556
206556
206556
206556
205575
205575
205575
205575
205575
205575
205575
205575
205575
205575
205575
205575
205575
205575
205575
205575
204883
204883
204883
203404
203404
203009
203009
203009
203009
203009
203009
203009
203009
203009
203009
203009
203009
203009
203009
203009
202930
202930
202930
202930
202491
202491
202491
202491
202491
202491
202491
202491
202491
202491
202491
202491
202491
202491
202491
202491
202491
200894
200894
200894
200894
200894
200894
200894
200894
200894
200894
200665
200665
200665
200665
200665
200665
200665
200665
200665
200665
200665
200665
200665
200402
200402
200402
200402
200402
200402
200402
200402
200402
200402
200402
200402
200402
200402
200402
200402
200402
200402
200402
199829
199829
199829
199829
199829
199829
199829
199829
199829
199829
199829
199829
199829
199829
199829
199829
199829
199829
199362
199362
199362
199362
199362
199362
199362
199362
199362
199362
199362
199362
199362
199362
199362
199362
199362
199362
199362
198797
198797
198797
198797
198742
198742
198742
198742
198742
198241
198241
198241
198241
198146
198146
198146
198146
197895
197895
197895
197763
197763
197763
197763
197763
197763
197763
197763
197763
197763
197763
197763
197763
197763
197763
197763
197763
197763
197763
197763
197727
197727
197727
197727
197727
197727
197727
197727
197727
197727
197706
197706
197706
197706
196878
196878
196878
196878
196776
196776
196776
196776
196776
196776
196776
196776
196776
196776
196776
196776
196776
196776
196495
196495
196176
196176
196176
196176
196176
196176
196176
196176
196176
196176
196176
196176
196176
196176
196176
196176
196176
196157
196157
196157
196157
196157
196157
195536
195536
195536
195536
195536
195536
195536
195536
195536
195536
195536
195536
195536
195536
195536
195536
194920
194920
194920
194920
194920
194920
194920
194173
193946
193946
193946
193946
193946
193946
193946
193946
193946
193946
193647
193647
193647
193647
193647
193647
193523
193523
193523
193523
193523
193523
193523
193504
193504
193504
193504
193504
193504
193504
193504
192956
191934
191934
191934
191934
191934
191934
191934
191934
191934
191934
191934
191934
191934
191934
191934
191934
189900
189900
189900
189900
189900
189900
189900
189900
189900
189900
189900
189900
189900
189900
189900
189900
189887
189887
189887
189887
189887
189887
189887
189887
189887
189887
189887
189887
189887
189711
189711
189711
189711
189711
189684
189684
189684
189684
189684
189684
189684
188998
188998
188998
188998
188998
188998
188998
188998
188998
188998
188771
188771
188771
188771
188771
188771
188771
188771
188771
188771
188771
188771
188420
188420
188420
188420
187529
187529
187529
187529
187529
187529
187529
187529
187529
187529
187488
187488
187488
187488
187488
187488
187488
187488
187488
187488
187488
187488
187488
187488
187488
187488
187488
187488
187013
187013
186276
186276
186276
186276
186276
186276
186276
186276
186276
186276
185542
185542
185542
185542
185542
185542
185542
185542
185542
185542
184956
184956
184956
184956
184956
184956
184956
184956
184864
184864
184864
184864
184864
184864
184864
184864
184864
184864
184864
184864
184824
184824
184824
184824
184824
184824
184824
184824
184824
184824
184824
184824
184824
184824
184824
184824
184824
184824
184824
184824
182299
182299
182299
182299
182299
182299
182299
182299
182299
182299
182249
182249
182249
182249
182249
182249
182249
182249
182249
182249
182249
182249
182249
182249
182249
182249
181564
181564
181564
181564
181564
181564
181564
181564
181564
180915
180915
180915
180915
180915
180915
180915
180915
180915
180915
180915
180915
180915
180299
180299
180299
180299
180299
180299
180299
179516
179516
179516
179516
179516
179516
179516
179516
179516
179516
179516
179516
179516
179516
179516
179516
179516
179501
179501
179501
179501
179501
179501
179501
179501
178250
178250
178250
178250
178250
178250
178250
178250
178250
178250
178250
177195
177195
177195
177195
177195
177195
177195
177195
177195
177164
177164
177164
177164
177164
177164
177164
177164
177164
177164
177048
177048
177048
177048
177048
176733
176733
176733
176733
176733
176733
176733
176733
176733
176733
176733
176733
176685
176685
176685
176685
176685
176685
176685
176411
176411
176411
176411
176411
176411
176411
176411
176273
176273
176273
176273
176273
176273
176273
176273
175941
175941
175941
175941
175941
175941
175941
175941
175941
175941
175941
175941
175941
175941
175941
175941
175463
175463
175463
175463
175463
175463
175463
175463
175463
175463
175463
175463
175463
175463
175463
175463
175463
173977
173977
173977
173977
173977
173977
173977
173952
173952
173952
173952
173952
173952
173952
173952
173952
173580
173580
173580
173580
173580
173580
173580
173580
173580
173580
173580
173580
173580
173580
173580
173580
173580
173580
173580
172527
172527
172527
172527
172527
172527
172527
172527
172527
172527
172527
172527
172527
172527
172527
172403
172403
172403
172403
172403
172403
172403
172400
172400
172400
172400
172400
172400
172400
172400
172400
172400
172400
172400
172400
172400
172400
172400
172400
172400
172400
172127
172127
172127
172127
172127
171446
170919
170919
170919
170919
170919
170919
170919
170447
170447
170447
170447
170447
170447
170447
170447
170447
170447
170447
170447
170447
170447
170447
170447
170447
170447
170447
170105
170105
169578
169578
169578
169578
169578
169578
169578
169578
169578
169578
169578
169578
169578
169578
168621
168621
168621
168621
168621
168621
168621
168621
168621
168621
168621
167739
167093
167093
167093
167093
167093
167093
166293
166293
166293
166293
166293
166293
166293
166293
166293
166293
166293
166293
166293
166293
166293
166293
166293
166293
166293
165954
165954
165954
165954
165954
165954
165954
165954
165954
165954
165954
165954
165954
165954
165954
165954
165954
165954
165453
165453
165408
165408
165408
165408
165408
164684
164684
164684
164684
164616
164616
164616
164616
164616
164616
164616
164616
164616
164616
164616
164616
164616
164616
164616
164616
164616
164616
164616
164616
163865
163865
163865
163865
163865
163865
163865
163865
163865
163865
163702
163702
163702
163702
163218
163218
163218
163218
163218
163218
163218
163218
163122
163122
163122
163122
163122
163122
163030
163030
163030
163030
163030
163030
163030
162733
162733
162733
162733
162733
162733
162733
162733
162733
162733
162733
162733
162733
162733
162733
162733
162733
162733
162733
162733
162121
162121
162121
161886
161886
161886
161886
161410
161410
161410
161410
161410
161410
161410
160493
160493
160493
160493
160493
160493
160493
160473
160473
160473
160473
160473
160473
160473
160473
160473
160473
160473
160473
160473
160443
160443
160443
160443
160443
160443
160443
160443
160443
160443
160443
160443
160443
159227
159227
159227
159227
159227
159227
159227
159227
159227
159227
159227
159227
159227
159227
159227
159227
159227
159227
159197
159197
159197
159197
159197
159091
159091
159091
159091
159091
159091
159091
159091
159091
159091
158847
158847
158847
158847
158847
158847
158847
158847
158847
158847
158847
158847
158423
158423
158423
158423
158423
158423
158423
158423
158423
158423
158423
158423
158423
158423
158423
158423
156299
156299
156299
156299
156299
156299
156299
156299
156299
156299
156299
156151
156151
156151
156151
156151
156151
156151
156151
156151
156151
156151
156151
156151
156151
156151
156151
156151
156151
156151
156151
155678
155678
155678
155678
155678
155678
155678
155678
155678
155678
155678
155678
155678
154646
154646
154385
154385
154385
154385
154385
153316
153316
153316
153316
153316
153316
153316
153316
153316
153316
153316
153316
153316
153316
153316
153316
153316
152810
152810
152810
152810
152810
152810
152810
152810
152810
152810
152810
152810
152810
152810
152810
152644
152644
152644
152644
152644
152644
152644
152644
152644
152644
152644
152644
152644
150662
150662
150662
150662
150662
149657
149657
149657
149657
149657
149657
149657
149657
149657
149657
149657
149657
149657
149657
149478
149478
149478
149478
149478
148332
148332
148332
148332
148332
148332
148332
147472
147472
147472
147472
147472
147472
147472
147472
147443
147443
147443
147443
147443
147165
147165
147165
147165
147165
147165
147165
147165
147165
147165
147165
147165
147165
147165
147165
147165
147165
147165
147165
147165
146953
146912
146912
146912
146912
146912
146912
146912
146912
146912
146912
146912
146912
146912
146912
146880
146880
146880
146880
146880
146880
146880
146880
146880
146880
146880
146880
146880
146880
146880
146880
146880
145366
145366
145009
145009
145009
145009
145009
145009
144620
144620
144620
144620
144620
144620
144620
144620
144620
144620
144620
144620
144620
144620
144560
144560
144560
144560
144560
144560
144560
144560
144560
144560
144560
144560
144560
144560
144560
144560
144560
144560
143743
143743
143743
143743
143743
143213
143213
143213
143213
143213
143213
143213
143213
143213
143213
143213
143213
143213
143213
142303
142303
142303
142303
142303
142303
142303
142303
142303
142303
142303
142303
142303
142303
142303
142303
142251
142251
142251
142251
142251
142251
142251
142251
142251
142251
142251
142251
142251
142251
142251
142251
142251
141208
141208
141208
141208
141208
141208
141208
141208
140450
140450
140450
140450
140450
140450
140450
140042
140042
140042
140042
140042
140042
140042
140042
140042
140042
140042
140042
140042
140042
140042
138473
138473
138055
138055
138055
138055
138055
138055
138055
138055
138055
138055
138055
138055
138055
136992
136992
136992
136992
136992
136992
136992
136992
136992
136992
136992
136992
136992
136992
136992
136992
136992
136992
136992
136992
136683
136683
136683
136250
136250
136250
136250
136250
136250
136250
136250
136250
136250
136250
136250
136250
136250
135471
135471
135471
135471
135471
135471
135471
135471
135471
135471
135471
135471
135471
135471
135471
135471
134545
134545
134545
134545
134545
134545
134545
134545
133501
133501
133501
133501
133501
133501
133501
133501
133501
133501
133501
133501
133501
132691
132691
132691
132691
132691
132691
132691
132691
132691
132691
132691
132691
132691
132691
132691
132691
132691
132691
132691
132643
132643
132643
132435
132435
132435
132435
132435
132435
132435
132435
132435
132435
132435
132435
132435
132435
132294
132294
132294
132294
132294
132294
132294
132294
132294
132294
132294
132294
132294
131801
131801
131801
131801
131801
131801
131801
131801
131801
131801
131801
131801
131801
131801
131801
131801
131681
131681
131358
131358
131358
131358
131358
131358
131358
131358
131358
131358
131358
131358
131358
131358
131358
131358
131358
131358
131358
131358
131333
131333
131333
131333
131333
131333
131333
131333
131333
131333
131333
131333
131333
131333
131333
131253
131253
131253
131253
131253
131253
131253
130274
130274
130082
130082
130082
130082
130082
130082
130082
129971
129971
129971
129971
129971
129971
129971
129971
129971
129971
129971
129516
129516
128271
128271
128271
128271
128271
128271
128271
128271
128271
128271
128271
128271
128271
128271
128271
128271
128271
128271
128271
128271
127740
127740
127740
127740
127740
127740
127740
127740
127740
127740
127740
127740
127740
127740
127740
127740
127740
127740
127740
126777
126777
125882
125882
125882
125882
124898
124898
124898
124898
124898
124898
124898
124898
124898
124898
124898
124898
124898
124898
124898
124898
124898
124898
124898
124587
124587
124587
124587
124587
124334
124334
124334
124334
124334
124334
124334
124176
124176
124176
124176
124176
124176
124176
124176
123016
123016
123016
123016
123016
123016
123016
123016
123016
123016
123016
123016
123016
123016
123016
123016
123016
123016
123016
123016
122417
122417
122417
122417
122417
122417
122417
122417
122417
122417
122337
122337
122337
122337
122337
122337
122337
122337
122337
122337
122337
122337
122337
122337
122337
122337
122337
122337
122097
121463
121463
121463
121463
121463
121463
121463
121463
121463
121288
121288
121288
121288
121288
121288
121288
121288
121288
121288
121288
121288
120439
120439
118996
118996
118996
118996
118996
118996
118996
118996
118996
118996
118996
118996
118996
118996
118376
118376
118376
118376
118376
118376
118039
118039
118039
118039
118039
118039
118039
118039
116523
116523
116523
116523
116523
116523
116451
116451
116451
116451
116451
116451
116451
116451
116451
116451
116451
116034
116034
116034
116034
116034
116034
116034
116034
116034
116034
116034
116034
116034
116034
116034
116034
115623
115623
115623
115623
115623
115623
115623
115623
115623
115623
115623
115623
115623
115623
115623
115623
115623
115148
115148
115148
115148
115148
115148
115148
115148
115148
115148
115148
115148
115148
115148
115148
115148
115110
115110
115110
114921
114921
114921
114921
114921
114921
114921
114921
114921
114921
114297
114297
114297
114297
114297
114297
114297
114297
114297
114297
114297
111885
111885
111885
111885
111885
111885
111885
111885
111885
111885
111885
111885
111885
111885
111885
111885
111885
111885
111078
111078
111078
111078
111078
111078
111078
111078
111078
111078
111078
111078
111078
111078
110079
110079
110079
110079
110079
110079
110079
110079
110079
110079
110079
110079
110079
110079
110079
110079
110013
110013
110013
110013
110013
109961
109961
109961
109961
109961
109961
109961
109961
109961
109961
109961
109961
109772
109772
109772
109490
109490
109490
109490
109490
109490
109490
109490
109490
109490
109490
109490
109339
109339
109339
109339
109339
109339
109339
109339
109339
109339
109339
109339
109339
109339
109339
109339
107855
107855
107855
107855
107855
107855
107855
107855
107855
106753
106753
106753
106753
106753
106753
106753
106753
106753
106753
106753
106043
106043
106043
106043
106043
106043
106043
106043
106043
106043
106043
106043
106043
106043
106043
106043
105834
105834
105834
105834
105834
105732
105732
105725
105725
105725
105725
105725
105725
105725
105725
105725
105725
105725
105725
105725
105725
105725
105725
105725
105725
105534
105534
105534
105534
105534
105534
105025
105025
105025
104173
104173
104173
104173
104173
104173
104173
104173
104173
104173
104173
104173
104173
104173
104173
104173
103957
103957
103957
103957
103957
103957
103957
103957
103957
103271
103271
103271
103271
103271
103271
103271
103271
103271
103271
103271
103271
103271
103271
103271
103271
103207
103207
103207
102855
102855
102855
102855
102855
102855
102855
102855
102855
102855
102855
102855
102855
102855
102855
102855
102804
102804
102804
102804
102804
102804
102804
102804
102804
102804
102804
102804
102804
102804
102804
102804
102804
102804
102804
102732
102732
102732
102732
102732
102658
102658
102658
102658
102658
102658
102658
102658
102658
102658
102588
102588
102588
102588
102588
102588
102588
102588
102588
102588
102588
102588
102588
102588
102588
102588
102588
102526
102526
102526
102526
102526
102526
102208
102208
101472
101201
101201
101201
101201
101201
101201
101201
101201
101201
100686
100686
100686
100686
100686
100686
100686
100686
100686
100686
100686
100686
100686
100686
100686
100675
100675
100675
100675
99534
99534
99534
99534
99534
99534
99534
99534
99534
99534
99534
99534
99534
99534
99534
99160
99160
99160
99160
99160
99160
99160
99160
99160
99160
99160
99160
99160
99160
99160
99160
99160
99160
99160
98553
98553
98553
98553
98553
98553
98553
98553
98553
98553
98553
98553
98553
98553
98553
98553
98553
98533
98512
98512
98512
98512
98512
98512
98512
98512
98512
98512
98512
97843
97843
97843
97843
97843
97843
97843
97843
97843
97843
97843
97843
97843
97843
97843
97843
97843
97843
94372
94372
94372
94038
94038
94038
94038
94038
94038
94038
93304
93304
93304
93304
93304
93304
93304
93304
93304
93304
93304
93304
93304
93086
93086
93086
93086
93086
92554
92554
92554
92554
92554
92554
92554
92554
92554
92554
92554
92554
92554
92554
92554
92554
92554
92554
92222
92222
92222
92222
92222
92222
92222
92222
92222
92222
92222
92222
92222
92087
91407
91407
91407
91407
91407
91407
91407
91407
89738
89738
89738
89738
89738
89738
89738
89738
89738
89738
89738
89738
89738
89738
89738
89738
89738
89738
89719
89719
89719
89719
89719
89719
89719
89719
89719
89719
89719
89588
89588
89588
89588
89588
89588
89588
89588
89588
89588
89588
89588
89588
89588
89588
89588
88681
88681
88681
88681
88681
88681
88681
88473
88473
88473
88473
88473
88473
88473
88473
88473
88473
88473
88397
88397
88397
87078
87078
87078
87078
87078
87078
87078
87078
87078
87078
87078
87078
87078
87078
87078
87078
86578
86578
86578
86578
86578
86578
86578
86578
86578
86578
86578
86578
86578
86578
86578
86578
86578
86578
85405
85405
85405
85405
85405
85405
85405
85405
85405
85405
85405
85405
85405
85140
85140
85140
85140
85140
85140
85140
85140
85140
85140
85140
85140
84632
84632
84632
84632
84632
84632
84632
84411
84411
84411
84411
84411
84411
84411
84411
84411
84411
84411
84411
84411
83927
83927
83927
83592
83592
83592
83592
83592
83592
83592
83592
83592
83592
83592
82911
82911
82911
82911
82911
82911
82911
82911
82911
82911
82911
82911
82911
82911
82911
82771
82771
82771
82771
82771
82771
82771
82771
82771
82771
82771
82771
82771
82771
82771
82771
82771
82771
82728
82728
82728
82728
82728
82728
82728
82728
82728
82728
82728
82553
82553
82553
82553
82553
82526
82526
82526
82526
82526
82526
82526
82526
82526
82526
82526
82526
82526
82526
82526
82526
82526
82526
82526
82207
82207
82207
82207
82207
82207
82207
82207
82207
82207
82207
82207
82207
81615
81615
81615
81615
81615
81615
81475
81475
81475
81475
81475
81475
81475
81475
81475
81475
81475
81475
81475
81475
81475
81475
81475
81475
81475
81475
80862
80862
79318
79318
79318
79318
79318
79318
79318
79318
79318
79318
79318
79318
79318
79318
79318
79318
79318
79318
79318
79318
78400
78400
78400
78400
78400
78400
78400
78400
78400
78400
78400
78400
78400
78363
78363
78363
78363
78363
78363
78363
78363
78363
78363
78363
78363
78363
78363
78363
78363
78363
78363
78363
78363
78163
78163
78163
78163
78163
78163
77966
77966
77966
77966
77966
77966
77966
77966
77966
77966
77966
77966
77966
77612
77612
77612
77612
77612
77612
77612
77612
77550
77550
77550
77550
77550
77550
77550
77550
77550
77550
77083
77083
77083
77083
77083
77083
77083
77083
77083
76886
76886
76886
76886
76886
76886
76886
76886
76886
76886
76886
76886
76886
76886
76886
76886
76886
76886
76886
76435
76435
76435
76435
76435
76435
76435
74132
74132
74132
74132
74132
74132
74132
74132
74132
73795
73795
73795
73410
73410
73410
73410
73410
73410
73410
73410
73410
73410
73410
73410
73410
73410
73410
73410
73410
73410
73410
73410
73233
73233
73233
73233
73233
73233
73233
73233
73064
73064
73064
73064
73064
73064
73064
73064
73064
73064
73064
73064
72490
72490
72426
72426
72426
72426
72426
72426
72426
72426
72279
72279
71970
71970
71970
71970
71970
71970
71970
71970
71970
71970
71652
71652
71652
71652
71652
71652
71652
71652
71652
71652
71652
71652
71652
71652
71652
71652
71652
71330
71330
71330
71330
71330
71330
71330
71330
71330
71330
71330
70927
70927
70927
70927
70927
70927
70927
70927
70927
70927
70927
70927
70927
70927
70927
70927
70927
70927
70927
70927
70597
70597
70597
70597
70597
70597
70597
70597
70597
70597
70597
70098
70098
70098
70098
70098
70098
70098
70098
70098
68790
68790
68790
68790
68619
68619
68619
68619
68619
68619
68619
68619
68619
68619
68619
68619
68619
68619
68619
68619
68619
68619
68619
68619
68055
68055
68055
68055
68055
68055
68055
68055
67241
67241
67241
67241
